4791
9344
5407
9098
1104
6271
3887
6201
8634
9950
5251
7796
4946
7267
8848
455
3830
2477
6969
4310
7700
8345
3147
3743
6439
2275
2493
9739
1229
3242
673
9539
3832
6873
9154
7961
6402
4932
5811
4676
1904
2268
4715
1173
9980
1965
5204
521
5783
4931
